p cnf 546 100

14 0
28 0
92 0
184 0
105 0
118 0
131 0
1 0
144 0
197 0
157 0
209 0
300 0
391 0
482 0
225 0
313 0
326 0
345 0
288 0
404 0
417 0
430 0
379 0
506 0
469 0
456 0
512 0
443 0
522 0
352 0
270 0
535 0
170 0
79 0
255 0
235 0
78 0
53 0
41 0
365 0
284 0
